n_res = 4;
rc = [ 0, 0, 0, 0 ];
n_tasks = 30;
d = [ 7, 4, 4, 9, 7, 6, 1, 8, 3, 8, 1, 10, 6, 4, 9, 8, 2, 5, 1, 3, 1, 3, 7, 5, 6, 3, 7, 2, 4, 3 ];
rr = [| 0, 0, 0, 0, 0, 0, 0, 0, 0, 0, 0, 0, 0, 0, 0, 0, 0, 0, 0, 0, 0, 0, 0, 0, 0, 0, 0, 0, 0, 0
      | 0, 0, 0, 0, 0, 0, 0, 0, 0, 0, 0, 0, 0, 0, 0, 0, 0, 0, 0, 0, 0, 0, 0, 0, 0, 0, 0, 0, 0, 0
      | 0, 0, 0, 0, 0, 0, 0, 0, 0, 0, 0, 0, 0, 0, 0, 0, 0, 0, 0, 0, 0, 0, 0, 0, 0, 0, 0, 0, 0, 0
      | 0, 0, 0, 0, 0, 0, 0, 0, 0, 0, 0, 0, 0, 0, 0, 0, 0, 0, 0, 0, 0, 0, 0, 0, 0, 0, 0, 0, 0, 0 |];
suc = [ { 5, 9, 11 },
       { 7, 19 },
       { 4, 10, 12 },
       { 6, 15, 17 },
       { 14, 16, 21 },
       { 8, 18, 28 },
       { 9, 13, 30 },
       { 16 },
       { 28, 29 },
       { 23 },
       { 14, 21, 24 },
       { 19 },
       { 16, 22 },
       { 17, 18, 28 },
       { 18, 21, 24 },
       { 27 },
       { 25 },
       { 23, 25, 30 },
       { 20, 22, 30 },
       { 27 },
       { 22 },
       { 23 },
       { 26 },
       { 25 },
       { 26 },
       { 27 },
       { 29 },
       {  },
       {  },
       {  } ];
